assets/ampl/Ex38[BlackFriday].dat
data;

set I:= 1	2;
set J:=	1	2;

param L:= 400;						
param M:= 30;						
 
param D :=
1	10
2	8
;

param SR:	1	2 :=
1			3	3
2			2	3
;


param LR: 	1	2 :=
1			15	15.5
2			16	14
;

param C:	1	2 :=
1			165	135
2			180	145
;

param R:	1	2=
1			0	4	
2			5	0	
;


