assets/ampl/Ex38[BlackFriday].log
ampl: model Ex38[BlackFriday].mod;
ampl: data Ex38[BlackFriday].dat;
ampl: option solver cplex;
ampl: solve;
CPLEX 12.9.0.0: optimal integer solution; objective 2775
0 MIP simplex iterations
0 branch-and-bound nodes
ampl: display X;
X :=
1 1   3
1 2   7
2 1   5
2 2   3
;

ampl: expand;
minimize Tot_Cost:
	165*X[1,1] + 135*X[1,2] + 180*X[2,1] + 145*X[2,2];

subject to labor:
	15*X[1,1] + 15.5*X[1,2] + 16*X[2,1] + 14*X[2,2] <= 400;

subject to demand[1]:
	X[1,1] + X[1,2] >= 10;

subject to demand[2]:
	X[2,1] + X[2,2] >= 8;

subject to shipping[1]:
	3*X[1,1] + 2*X[2,1] <= 30;

subject to shipping[2]:
	3*X[1,2] + 3*X[2,2] <= 30;

subject to req[1,1]:
	X[1,1] >= 0;

subject to req[1,2]:
	X[1,2] >= 4;

subject to req[2,1]:
	X[2,1] >= 5;

subject to req[2,2]:
	X[2,2] >= 0;

ampl: exit;
